c Reduced graph for p13 generated by Cyril Grelier
p edge 34 160
e 1 2
e 1 3
e 1 6
e 1 10
e 1 16
e 1 17
e 1 20
e 1 29
e 1 30
e 2 5
e 2 12
e 2 17
e 2 18
e 2 20
e 2 26
e 2 30
e 2 33
e 3 5
e 3 6
e 3 10
e 3 13
e 3 16
e 3 19
e 3 25
e 3 29
e 3 34
e 4 6
e 4 8
e 4 9
e 4 20
e 4 21
e 4 22
e 4 23
e 4 24
e 4 33
e 4 34
e 5 12
e 5 13
e 5 18
e 5 19
e 5 25
e 5 26
e 5 33
e 5 34
e 6 9
e 6 10
e 6 16
e 6 21
e 6 22
e 6 29
e 6 33
e 7 9
e 7 14
e 7 15
e 7 24
e 7 25
e 7 26
e 7 29
e 7 30
e 7 31
e 7 32
e 8 10
e 8 11
e 8 12
e 8 15
e 8 20
e 8 23
e 8 24
e 8 27
e 8 34
e 9 15
e 9 21
e 9 22
e 9 25
e 9 30
e 9 31
e 9 33
e 10 11
e 10 12
e 10 15
e 10 16
e 10 27
e 10 29
e 11 12
e 11 13
e 11 14
e 11 15
e 11 21
e 11 27
e 11 28
e 12 15
e 12 18
e 12 26
e 12 27
e 12 33
e 13 14
e 13 19
e 13 21
e 13 25
e 13 28
e 13 34
e 14 21
e 14 24
e 14 26
e 14 28
e 14 29
e 14 32
e 15 25
e 15 27
e 15 30
e 15 31
e 16 18
e 16 23
e 16 28
e 16 29
e 16 31
e 17 19
e 17 20
e 17 22
e 17 27
e 17 30
e 17 32
e 18 23
e 18 26
e 18 28
e 18 31
e 18 33
e 19 22
e 19 25
e 19 27
e 19 32
e 19 34
e 20 23
e 20 24
e 20 30
e 20 34
e 21 22
e 21 28
e 21 33
e 22 27
e 22 32
e 22 33
e 23 24
e 23 28
e 23 31
e 23 34
e 24 26
e 24 29
e 24 32
e 24 34
e 25 30
e 25 31
e 25 34
e 26 29
e 26 32
e 26 33
e 27 32
e 28 31
e 29 32
e 30 31
